id: 494
name: gen4
group: meszaros/problematic
method: 1

Gurobi 7.0.2 (linux64, Matlab) logging started Thu Apr 19 15:57:07 2018


Gurobi 7.0.2 (linux64) logging started Thu Apr 19 15:57:07 2018

Optimize a model with 1537 rows, 4297 columns and 107102 nonzeros
Coefficient statistics:
  Matrix range     [5e-08, 1e+00]
  Objective range  [1e+00, 1e+00]
  Bounds range     [0e+00, 0e+00]
  RHS range        [5e-02, 6e+01]
Presolve removed 62 rows and 124 columns
Presolve time: 0.03s
Presolved: 1475 rows, 4173 columns, 104236 nonzeros

Iteration    Objective       Primal Inf.    Dual Inf.      Time
       0    0.0000000e+00   2.575044e+04   0.000000e+00      0s
     624    0.0000000e+00   0.000000e+00   0.000000e+00      0s

Solved in 624 iterations and 0.34 seconds
Optimal objective  0.000000000e+00
status: OPTIMAL
